% demand
num_movements = 29;
loading_factor = [1900, 1750, 800, 1500, 1250, 1800, 1900, 1500, 950, 1250, 1800, 1850, 1500, 800, 1250, 1000, 1200, 1950, 1950, 2000, 1050, 800, 1350, 1900, 1900, 1250, 1050, 1150, 1750];
pickup_time = [0, 0, 2, 2, 2, 2, 2, 2, 3, 4, 4, 4, 5, 5, 6, 8, 8, 8, 8, 8, 9, 11, 11, 11, 11, 11, 11, 12, 12];
delivery_time = [7, 1, 3, 4, 5, 4, 4, 7, 4, 5, 10, 7, 7, 12, 7, 11, 11, 11, 12, 9, 11, 12, 13, 12, 12, 12, 12, 13, 13];

% transporter definition
total_capacity = 11000;
num_decks = 4;
capacity = [3000, 3000, 1000, 4000];

% ways out of decks
num_ways_out = 2;
paths_out = array3d(decks, ways_out, decks, [
% ways out of deck d1
2, 4, 0, 0, 3, 4, 0, 0, 

% ways out of deck d2
4, 0, 0, 0, 0, 0, 0, 0,	

% ways out of deck d3
4, 0, 0, 0, 0, 0, 0, 0,	

% ways out of deck d4
0, 0, 0, 0,	0, 0, 0, 0,	

]);

